
  12    4
  10   10   10   10

   0   0   0   0   0   5 2 3 4 5 6 
   1  10  10  10  10   3 11 9 8 
   9  10  10  10  10   2 9 7 
   9  10  10  10  10   2 10 8 
   7  10  10  10  10   2 10 8 
   3  10  10  10  10   2 9 8 
   8  10  10  10  10   1 8 
   9  10  10  10  10   1 12
   8  10  10  10  10   1 12
   8  10  10  10  10   1 12
   8  10  10  10  10   1 12
   0   0   0   0   0   0 
